1646850
0,53,12,46,3,19,64,47,1,44,26,16,8,57,14,7,35,58,15,62,23,60,41,2,20,27,49,36,52,67,34,50,38,61,43,9,17,56,32,51,13,30,21,42,45,33,54,25,65,10,63,66,6,37,40,29,24,5,28,59,22,48,18,4,39,55,31,11,0